20 380
0 1 84.9
0 2 64.9
0 3 33.0
0 4 89.4
0 5 78.0
0 6 48.6
0 7 29.9
0 8 18.0
0 9 54.8
0 10 26.9
0 11 34.3
0 12 79.2
0 13 13.6
0 14 24.4
0 15 65.2
0 16 60.0
0 17 99.0
0 18 24.1
0 19 49.1
1 2 30.2
1 3 90.0
1 4 63.3
1 5 8.4
1 6 39.4
1 7 59.4
1 8 67.2
1 9 33.3
1 10 61.3
1 11 55.4
1 12 15.7
1 13 73.5
1 14 63.6
1 15 21.0
1 16 72.5
1 17 40.1
1 18 67.2
1 19 36.3
2 3 80.3
2 4 80.0
2 5 28.9
2 6 16.8
2 7 47.7
2 8 49.5
2 9 32.0
2 10 38.3
2 11 45.5
2 12 37.3
2 13 51.8
2 14 49.7
2 15 26.0
2 16 75.7
2 17 65.9
2 18 54.6
2 19 27.3
3 4 70.2
3 5 81.7
3 6 64.0
3 7 32.6
3 8 34.4
3 9 56.7
3 10 49.7
3 11 35.5
3 12 79.0
3 13 41.2
3 14 30.8
3 15 69.0
3 16 36.0
3 17 89.7
3 18 25.8
3 19 55.6
4 5 57.1
4 6 74.2
4 7 61.3
4 8 75.1
4 9 50.6
4 10 82.4
4 11 57.8
4 12 47.8
4 13 86.3
4 14 66.5
4 15 54.1
4 16 34.6
4 17 32.3
4 18 65.4
4 19 58.4
5 6 34.6
5 7 51.6
5 8 60.1
5 9 25.1
5 10 55.5
5 11 47.5
5 12 9.5
5 13 67.1
5 14 56.0
5 15 13.1
5 16 64.3
5 17 37.4
5 18 59.4
5 19 28.9
6 7 31.7
6 8 32.7
6 9 23.6
6 10 22.7
6 11 30.1
6 12 40.0
6 13 35.8
6 14 33.2
6 15 25.0
6 16 63.5
6 17 67.1
6 18 38.2
6 19 16.0
7 8 13.7
7 9 26.7
7 10 24.0
7 11 4.5
7 12 51.0
7 13 25.0
7 14 5.6
7 15 38.5
7 16 37.8
7 17 69.1
7 18 7.9
7 19 23.5
8 9 36.9
8 10 15.3
8 11 17.7
8 12 61.3
8 13 11.3
8 14 8.7
8 15 47.2
8 16 49.9
8 17 81.7
8 18 11.9
8 19 31.2
9 10 36.6
9 11 22.5
9 12 24.5
9 13 45.6
9 14 31.5
9 15 12.3
9 16 44.3
9 17 46.7
9 18 34.5
9 19 8.3
10 11 26.0
10 12 59.0
10 13 13.5
10 14 21.4
10 15 43.9
10 16 61.9
10 17 83.3
10 18 26.1
10 19 28.9
11 12 46.7
11 13 28.7
11 14 10.0
11 15 34.5
11 16 36.2
11 17 64.7
11 18 12.0
11 19 20.1
12 13 69.5
12 14 56.0
12 15 15.3
12 16 57.9
12 17 28.5
12 18 58.7
12 19 30.6
13 14 20.0
13 15 54.7
13 16 60.9
13 17 91.6
13 18 22.7
13 19 38.9
14 15 42.9
14 16 41.5
14 17 74.6
14 18 5.1
14 19 27.4
15 16 54.5
15 17 42.2
15 18 46.3
15 19 16.0
16 17 58.9
16 18 38.2
16 19 48.6
17 18 75.7
17 19 54.6
18 19 31.3
